c Reduced graph for R100_1gb generated by Cyril Grelier
p edge 100 509
e 1 3
e 1 8
e 1 29
e 1 31
e 1 35
e 1 37
e 1 45
e 1 54
e 1 61
e 1 67
e 1 75
e 1 84
e 1 86
e 1 92
e 2 6
e 2 22
e 2 29
e 2 35
e 2 51
e 2 58
e 2 71
e 2 73
e 2 76
e 2 94
e 2 96
e 3 7
e 3 23
e 3 34
e 3 37
e 3 50
e 3 67
e 3 80
e 3 83
e 3 86
e 4 12
e 4 20
e 4 37
e 4 45
e 4 59
e 4 73
e 4 82
e 4 83
e 4 90
e 5 12
e 5 29
e 5 38
e 5 64
e 5 79
e 5 80
e 5 89
e 5 100
e 6 26
e 6 33
e 6 51
e 6 66
e 6 76
e 6 79
e 7 8
e 7 16
e 7 30
e 7 32
e 7 33
e 7 42
e 7 53
e 7 63
e 7 64
e 7 71
e 7 74
e 7 82
e 7 84
e 7 93
e 8 10
e 8 24
e 8 44
e 8 55
e 8 58
e 8 68
e 8 72
e 8 77
e 8 86
e 8 92
e 9 15
e 9 16
e 9 28
e 9 30
e 9 31
e 9 45
e 9 46
e 9 50
e 9 54
e 9 57
e 10 17
e 10 22
e 10 37
e 10 44
e 10 47
e 10 85
e 10 97
e 11 15
e 11 16
e 11 37
e 11 42
e 11 60
e 11 61
e 11 93
e 12 18
e 12 22
e 12 26
e 12 33
e 12 43
e 12 45
e 12 58
e 12 67
e 12 68
e 12 73
e 12 75
e 12 91
e 13 15
e 13 18
e 13 47
e 13 52
e 13 60
e 13 61
e 13 66
e 13 77
e 13 87
e 13 88
e 14 22
e 14 24
e 14 25
e 14 32
e 14 33
e 14 41
e 14 56
e 14 58
e 14 70
e 14 71
e 14 79
e 14 88
e 14 91
e 14 92
e 14 93
e 15 16
e 15 34
e 15 38
e 15 57
e 15 67
e 15 78
e 15 80
e 15 87
e 15 92
e 15 94
e 15 97
e 15 100
e 16 17
e 16 22
e 16 29
e 16 32
e 16 45
e 16 50
e 16 53
e 16 65
e 16 72
e 16 80
e 16 85
e 16 91
e 16 97
e 16 100
e 17 18
e 17 23
e 17 26
e 17 29
e 17 37
e 17 38
e 17 51
e 17 57
e 17 62
e 17 76
e 17 79
e 17 99
e 18 29
e 18 35
e 18 39
e 18 53
e 18 56
e 18 64
e 18 80
e 18 85
e 18 91
e 18 98
e 19 20
e 19 21
e 19 26
e 19 44
e 19 46
e 19 52
e 19 59
e 19 76
e 19 89
e 19 95
e 19 96
e 19 100
e 20 40
e 20 43
e 20 75
e 20 79
e 20 85
e 20 87
e 20 88
e 21 30
e 21 41
e 21 61
e 21 66
e 21 73
e 21 98
e 22 38
e 22 45
e 22 49
e 22 59
e 22 63
e 22 68
e 22 70
e 22 73
e 22 93
e 22 96
e 22 97
e 23 24
e 23 31
e 23 40
e 23 44
e 23 54
e 23 65
e 23 67
e 23 91
e 23 94
e 23 96
e 24 27
e 24 36
e 24 44
e 24 47
e 24 51
e 24 66
e 24 85
e 24 90
e 25 28
e 25 32
e 25 37
e 25 49
e 25 67
e 25 76
e 25 80
e 25 83
e 25 87
e 25 97
e 26 63
e 26 65
e 26 66
e 26 70
e 26 85
e 26 86
e 27 33
e 27 43
e 27 44
e 27 56
e 27 59
e 27 68
e 27 81
e 27 94
e 28 49
e 28 56
e 28 63
e 28 81
e 29 34
e 29 47
e 29 57
e 29 61
e 29 62
e 29 64
e 29 76
e 29 86
e 29 88
e 29 89
e 29 91
e 30 31
e 30 34
e 30 49
e 30 60
e 30 67
e 30 91
e 30 95
e 30 96
e 31 38
e 31 43
e 31 44
e 31 50
e 31 81
e 31 88
e 31 93
e 32 40
e 32 43
e 32 61
e 32 76
e 32 78
e 32 96
e 33 64
e 33 70
e 33 87
e 33 89
e 34 37
e 34 49
e 34 61
e 34 87
e 35 76
e 35 80
e 35 84
e 35 88
e 36 57
e 36 64
e 36 71
e 36 73
e 36 76
e 37 56
e 37 79
e 37 84
e 38 57
e 38 78
e 38 89
e 38 99
e 38 100
e 39 47
e 39 54
e 39 58
e 39 61
e 39 71
e 39 84
e 39 86
e 39 93
e 40 42
e 40 71
e 40 84
e 40 91
e 40 96
e 41 77
e 41 84
e 41 95
e 41 100
e 42 46
e 42 80
e 42 88
e 43 49
e 43 55
e 43 70
e 43 73
e 43 74
e 43 80
e 43 92
e 43 93
e 44 47
e 44 77
e 44 78
e 44 98
e 45 72
e 45 73
e 45 81
e 45 86
e 45 87
e 46 56
e 46 62
e 46 77
e 46 80
e 46 84
e 46 90
e 46 96
e 46 98
e 47 58
e 47 73
e 47 89
e 48 56
e 48 66
e 48 78
e 48 80
e 48 87
e 49 70
e 49 79
e 49 84
e 49 89
e 49 96
e 50 61
e 50 71
e 50 76
e 50 90
e 50 96
e 50 97
e 51 56
e 51 58
e 51 72
e 51 78
e 51 86
e 51 88
e 52 66
e 52 70
e 52 77
e 52 82
e 52 84
e 52 88
e 52 94
e 53 54
e 53 61
e 53 90
e 53 94
e 53 97
e 54 69
e 54 82
e 55 57
e 55 65
e 55 87
e 55 100
e 56 58
e 56 66
e 56 75
e 56 85
e 57 61
e 57 84
e 57 97
e 58 66
e 58 78
e 59 63
e 59 74
e 60 97
e 61 67
e 61 72
e 61 74
e 61 84
e 61 85
e 61 87
e 61 88
e 62 65
e 62 70
e 62 74
e 62 80
e 62 81
e 62 85
e 63 66
e 63 73
e 63 86
e 63 95
e 64 92
e 64 99
e 66 73
e 66 82
e 66 99
e 67 74
e 67 79
e 68 88
e 68 89
e 68 99
e 69 96
e 69 98
e 70 76
e 70 89
e 70 92
e 71 75
e 71 80
e 71 96
e 72 90
e 72 93
e 73 76
e 73 92
e 73 95
e 73 98
e 74 75
e 74 89
e 75 76
e 75 90
e 76 77
e 76 80
e 76 82
e 76 89
e 76 91
e 76 95
e 76 99
e 77 78
e 77 80
e 77 85
e 77 98
e 77 99
e 78 80
e 78 91
e 79 96
e 81 82
e 81 84
e 81 86
e 81 87
e 81 90
e 81 91
e 81 92
e 81 99
e 82 84
e 82 91
e 84 91
e 84 99
e 85 97
e 85 98
e 86 88
e 86 96
e 87 96
e 93 97
e 94 100
e 98 100
